
Gurobi 10.0.1 (linux64) logging started Sun Nov 26 15:41:10 2023

Set parameter LogFile to value "ArtificialInstance/ExperimentV2/S2T4K1/BaSp/gurobi91.txt"
Gurobi Optimizer version 10.0.1 build v10.0.1rc0 (linux64)

CPU model: AMD EPYC 7H12 64-Core Processor, instruction set [SSE2|AVX|AVX2]
Thread count: 128 physical cores, 128 logical processors, using up to 32 threads

Academic license 656792 - for non-commercial use only - registered to b.___@student.vu.nl
Optimize a model with 1105 rows, 1680 columns and 5360 nonzeros
Model fingerprint: 0xf13a58b1
Variable types: 0 continuous, 1680 integer (1680 binary)
Coefficient statistics:
  Matrix range     [1e+00, 1e+00]
  Objective range  [2e+00, 2e+01]
  Bounds range     [1e+00, 1e+00]
  RHS range        [1e+00, 1e+00]
Found heuristic solution: objective 641.0328958
Presolve time: 0.01s
Presolved: 1105 rows, 1680 columns, 5360 nonzeros
Variable types: 0 continuous, 1680 integer (1680 binary)

Root relaxation: objective 3.385926e+01, 833 iterations, 0.01 seconds (0.01 work units)

    Nodes    |    Current Node    |     Objective Bounds      |     Work
 Expl Unexpl |  Obj  Depth IntInf | Incumbent    BestBd   Gap | It/Node Time

     0     0   33.85926    0  168  641.03290   33.85926  94.7%     -    0s
H    0     0                     102.1034474   33.85926  66.8%     -    0s
H    0     0                      96.8418828   33.85926  65.0%     -    0s
H    0     0                      65.3711872   33.85926  48.2%     -    0s
     0     0   37.80275    0  211   65.37119   37.80275  42.2%     -    0s
H    0     0                      63.4405595   37.80275  40.4%     -    0s
H    0     0                      49.5855657   37.80275  23.8%     -    0s
     0     0   41.21329    0  227   49.58557   41.21329  16.9%     -    0s
     0     0   41.39517    0  238   49.58557   41.39517  16.5%     -    0s
H    0     0                      45.6189692   41.98860  7.96%     -    0s
H    0     0                      44.5973114   41.98860  5.85%     -    0s
     0     0   42.11438    0  227   44.59731   42.11438  5.57%     -    0s
     0     0   42.11438    0  143   44.59731   42.11438  5.57%     -    0s
     0     0   43.04389    0  161   44.59731   43.04389  3.48%     -    0s
     0     0   43.18866    0  147   44.59731   43.18866  3.16%     -    0s
     0     0   43.18866    0  145   44.59731   43.18866  3.16%     -    0s
     0     0   43.65328    0  242   44.59731   43.65328  2.12%     -    0s
     0     0 infeasible    0        44.59731   44.59731  0.00%     -    0s

Explored 1 nodes (2956 simplex iterations) in 0.35 seconds (0.12 work units)
Thread count was 32 (of 128 available processors)

Solution count 8: 44.5973 45.619 49.5856 ... 641.033

Optimal solution found (tolerance 1.00e-04)
Best objective 4.459731142384e+01, best bound 4.459731142384e+01, gap 0.0000%
